c CaDiCaL SAT Solver
c Copyright (c) 2016-2021 Armin Biere, University of Freiburg
c Version 1.5.3 cb89cbfa16f47cb7bf1ec6ad9855e7b6d5203c18
c 
c Reading DIMACS file problem1.cnf
c Parsing problem with 1250 variables and 5430 clauses
c Finished parsing
c 
c --- Configuration ---
c chronological 0
c stabilize 1
c restarts enabled
c 
c --- Starting CDCL search ---
c 
c  seconds  reductions restarts  conflicts   glue   remaining
c 
c     0.01         0        0          0    0.0%   100.0%
c     1.23        50      142       5023   32.5%    78.4%
c     3.48       100      298      10589   28.9%    65.2%
c     6.12       150      445      15234   31.2%    52.8%
c     9.45       200      601      20145   29.8%    41.3%
c    13.22       250      768      25678   33.1%    35.7%
c    17.56       300      942      31024   30.6%    28.4%
c    21.89       350     1103      36892   32.4%    22.1%
c    25.34       400     1254      42156   31.8%    15.9%
c 
s SATISFIABLE
c 
c --- Statistics ---
c decisions:              287453
c conflicts:               42156
c propagations:         38924567
c conflict literals:      512389
c learned clauses:         42156
c deleted clauses:         18234
c memory used:            45.23 MB
c 
c --- Timing ---
c preprocessing:           0.34 seconds
c search time:            25.01 seconds
c total process time since initialization: 25.80 seconds
c 
v 1 -2 3 -4 5 6 -7 8 9 -10 11 12 -13 14 15 -16 17 18 -19 20